
Gurobi 13.0.1 (linux64) logging started Sat Mar 21 16:20:05 2026

Set parameter LogFile to value "logs/50B_6F_robust_gamma_0d25_theta_0d05199999999999999_2026-03-21_16h19m39s.log"
Set parameter MIPGap to value 0.005
Set parameter OptimalityTol to value 0.005
Gurobi Optimizer version 13.0.1 build v13.0.1rc0 (linux64 - "openSUSE Tumbleweed")

CPU model: Intel(R) Core(TM) i7-10610U CPU @ 1.80GHz, instruction set [SSE2|AVX|AVX2]
Thread count: 4 physical cores, 8 logical processors, using up to 8 threads

Non-default parameters:
TimeLimit  3600
SoftMemLimit  12
MIPGap  0.005
OptimalityTol  0.005

Optimize a model with 60351 rows, 780571 columns and 2406497 nonzeros (Max)
Model fingerprint: 0x7d8832a4
Model has 735061 linear objective coefficients
Variable types: 15571 continuous, 765000 integer (765000 binary)
Coefficient statistics:
  Matrix range     [3e-05, 1e+05]
  Objective range  [1e+00, 3e+03]
  Bounds range     [1e+00, 1e+05]
  RHS range        [8e-03, 1e+05]

Presolve removed 31036 rows and 564142 columns
Presolve time: 1.98s
Presolved: 29315 rows, 216429 columns, 690965 nonzeros
Variable types: 7521 continuous, 208908 integer (208908 binary)
Found heuristic solution: objective -3.92159e+08
Found heuristic solution: objective -3.87980e+08
Deterministic concurrent LP optimizer: primal simplex, dual simplex, and barrier
Showing barrier log only...

Root barrier log...

Ordering time: 0.58s

Barrier statistics:
 AA' NZ     : 4.006e+05
 Factor NZ  : 3.177e+06 (roughly 120 MB of memory)
 Factor Ops : 6.164e+08 (less than 1 second per iteration)
 Threads    : 2

                  Objective                Residual
Iter       Primal          Dual         Primal    Dual     Compl     Time
   0  -7.10954955e+11  1.05054966e+09  9.82e+06 5.12e+02  9.67e+06     4s
   1  -6.28936016e+10  1.72682102e+09  8.71e+05 5.70e+02  8.73e+05     4s
   2  -2.19580680e+09  1.40920554e+09  3.09e+04 1.41e+02  3.43e+04     4s
   3  -3.14479273e+08  1.03521578e+09  5.65e+03 2.07e+01  7.40e+03     4s
   4   4.55383558e+07  6.81480166e+08  8.23e+02 8.14e+00  1.99e+03     4s
   5   7.99624948e+07  2.29403879e+08  3.48e+02 1.26e+00  5.01e+02     5s
   6   9.77027033e+07  1.37820707e+08  1.14e+02 2.65e-01  1.40e+02     5s
   7   1.00579766e+08  1.25374600e+08  7.81e+01 1.49e-01  8.86e+01     5s
   8   1.04217777e+08  1.18771882e+08  3.03e+01 9.15e-02  4.51e+01     5s
   9   1.06031334e+08  1.11741662e+08  7.37e+00 3.18e-02  1.54e+01     5s
  10   1.06287291e+08  1.09208148e+08  4.02e+00 1.42e-02  7.60e+00     5s
  11   1.06489128e+08  1.08187954e+08  2.21e+00 7.55e-03  4.17e+00     5s
  12   1.06509551e+08  1.07659708e+08  2.05e+00 5.88e-03  2.76e+00     6s
  13   1.06674101e+08  1.07243290e+08  9.11e-01 1.82e-03  1.30e+00     6s
  14   1.06870092e+08  1.07101745e+08  1.01e-01 8.68e-04  5.21e-01     6s
  15   1.06896369e+08  1.06995751e+08  6.07e-02 3.00e-04  2.23e-01     6s
  16   1.06917780e+08  1.06968424e+08  2.80e-02 1.55e-04  1.14e-01     6s
  17   1.06925738e+08  1.06957691e+08  1.70e-02 9.79e-05  7.16e-02     6s
  18   1.06933605e+08  1.06952495e+08  6.63e-03 6.99e-05  4.24e-02     6s
  19   1.06936131e+08  1.06946724e+08  3.75e-03 3.76e-05  2.38e-02     7s
  20   1.06936655e+08  1.06944038e+08  3.14e-03 2.33e-05  1.65e-02     7s
  21   1.06937281e+08  1.06943662e+08  2.41e-03 2.13e-05  1.43e-02     7s
  22   1.06937784e+08  1.06943379e+08  1.82e-03 1.99e-05  1.25e-02     7s
  23   1.06938200e+08  1.06942427e+08  1.33e-03 1.48e-05  9.48e-03     7s
  24   1.06938566e+08  1.06941404e+08  9.18e-04 9.72e-06  6.36e-03     7s
  25   1.06938735e+08  1.06940668e+08  7.29e-04 6.06e-06  4.33e-03     7s
  26   1.06938986e+08  1.06940230e+08  4.47e-04 3.84e-06  2.79e-03     8s
  27   1.06939179e+08  1.06939888e+08  2.36e-04 2.16e-06  1.59e-03     8s
  28   1.06939275e+08  1.06939680e+08  1.33e-04 1.15e-06  9.08e-04     8s
  29   1.06939326e+08  1.06939566e+08  8.17e-05 6.22e-07  5.38e-04     8s
  30   1.06939354e+08  1.06939508e+08  5.47e-05 3.74e-07  3.45e-04     8s
  31   1.06939385e+08  1.06939465e+08  2.61e-05 1.96e-07  1.79e-04     8s
  32   1.06939397e+08  1.06939446e+08  1.50e-05 1.18e-07  1.10e-04     8s
  33   1.06939401e+08  1.06939439e+08  1.15e-05 9.00e-08  8.45e-05     8s
  34   1.06939402e+08  1.06939437e+08  1.07e-05 8.10e-08  7.72e-05     9s
  35   1.06939405e+08  1.06939431e+08  7.90e-06 5.88e-08  5.76e-05     9s
  36   1.06939410e+08  1.06939421e+08  3.87e-06 2.07e-08  2.40e-05     9s
  37   1.06939412e+08  1.06939419e+08  2.37e-06 1.37e-08  1.54e-05     9s
  38   1.06939414e+08  1.06939418e+08  1.39e-06 9.22e-09  9.98e-06     9s
  39   1.06939415e+08  1.06939417e+08  8.12e-07 5.56e-09  6.08e-06     9s
  40   1.06939415e+08  1.06939417e+08  5.16e-07 2.84e-09  3.53e-06     9s
  41   1.06939415e+08  1.06939416e+08  2.91e-07 1.32e-09  1.84e-06    10s

Barrier solved model in 41 iterations and 9.53 seconds (7.25 work units)
Optimal objective 1.06939415e+08


Root crossover log...

    9267 DPushes remaining with DInf 0.0000000e+00                10s
       0 DPushes remaining with DInf 0.0000000e+00                10s

    8398 PPushes remaining with PInf 1.0144283e-01                10s
    2386 PPushes remaining with PInf 1.0853938e-01                10s
       0 PPushes remaining with PInf 0.0000000e+00                10s

  Push phase complete: Pinf 0.0000000e+00, Dinf 4.2026023e+04     10s


Root simplex log...

Iteration    Objective       Primal Inf.    Dual Inf.      Time
   17305    1.0693942e+08   0.000000e+00   4.202595e+04     10s
   18502    1.0693942e+08   0.000000e+00   0.000000e+00     11s
Crossover time: 1.57 seconds (0.83 work units)
Concurrent spin time: 0.00s

Solved with barrier

Root relaxation: objective 1.069394e+08, 18502 iterations, 8.43 seconds (5.12 work units)

    Nodes    |    Current Node    |     Objective Bounds      |     Work
 Expl Unexpl |  Obj  Depth IntInf | Incumbent    BestBd   Gap | It/Node Time

     0     0 1.0694e+08    0 4848 -3.880e+08 1.0694e+08   128%     -   13s
H    0     0                    -2.08718e+08 1.0694e+08   151%     -   17s
H    0     0                    -1.53130e+08 1.0694e+08   170%     -   18s
H    0     0                    -1.40442e+08 1.0694e+08   176%     -   20s
H    0     0                    -8.30861e+07 1.0694e+08   229%     -   27s
H    0     0                    -2.69803e+07 1.0694e+08   496%     -   27s
H    0     0                    -1.43627e+07 1.0694e+08   845%     -   29s
H    0     0                    5388118.5375 1.0694e+08  1885%     -   30s
H    0     0                    1.811930e+07 1.0694e+08   490%     -   32s
H    0     0                    6.024624e+07 1.0694e+08  77.5%     -   34s
H    0     0                    8.868928e+07 1.0694e+08  20.6%     -   36s
     0     0 1.0694e+08    0 5099 8.8689e+07 1.0694e+08  20.6%     -   96s
H    0     0                    8.992590e+07 1.0694e+08  18.9%     -  108s
H    0     0                    8.992672e+07 1.0694e+08  18.9%     -  115s
H    0     0                    8.996035e+07 1.0694e+08  18.9%     -  116s
H    0     0                    8.996278e+07 1.0694e+08  18.9%     -  128s
H    0     0                    9.004212e+07 1.0694e+08  18.8%     -  145s
H    0     0                    9.005576e+07 1.0694e+08  18.7%     -  147s
H    0     0                    9.005767e+07 1.0694e+08  18.7%     -  159s
     0     0 1.0694e+08    0 5112 9.0058e+07 1.0694e+08  18.7%     -  197s
     0     0 1.0694e+08    0 5481 9.0058e+07 1.0694e+08  18.7%     -  291s
H    0     0                    9.122183e+07 1.0694e+08  17.2%     -  294s
H    0     0                    9.204932e+07 1.0694e+08  16.2%     -  294s
H    0     0                    9.986053e+07 1.0694e+08  7.09%     -  297s
H    0     0                    1.000705e+08 1.0694e+08  6.86%     -  303s
H    0     0                    1.031005e+08 1.0694e+08  3.72%     -  311s
H    0     0                    1.035748e+08 1.0694e+08  3.25%     -  328s
H    0     0                    1.043119e+08 1.0694e+08  2.52%     -  334s
H    0     0                    1.045177e+08 1.0694e+08  2.32%     -  340s
     0     0 1.0694e+08    0 5429 1.0452e+08 1.0694e+08  2.32%     -  349s
     0     0 1.0694e+08    0 6689 1.0452e+08 1.0694e+08  2.32%     -  455s
     0     0 1.0694e+08    0 6724 1.0452e+08 1.0694e+08  2.32%     -  462s
     0     0 1.0694e+08    0 6156 1.0452e+08 1.0694e+08  2.32%     -  551s
     0     0 1.0694e+08    0 6156 1.0452e+08 1.0694e+08  2.32%     -  554s
     0     0 1.0694e+08    0 5968 1.0452e+08 1.0694e+08  2.32%     -  555s
H    0     0                    1.045196e+08 1.0694e+08  2.31%     -  631s
H    0     0                    1.045456e+08 1.0694e+08  2.29%     -  634s
H    0     0                    1.045470e+08 1.0694e+08  2.29%     -  642s
H    0     0                    1.045659e+08 1.0694e+08  2.27%     -  653s
H    0     0                    1.045673e+08 1.0694e+08  2.27%     -  658s
     0     2 1.0694e+08    0 5901 1.0457e+08 1.0694e+08  2.27%     -  680s
     1     3 1.0694e+08    1 5722 1.0457e+08 1.0694e+08  2.27% 28054  713s
     2     4 1.0694e+08    1 6819 1.0457e+08 1.0694e+08  2.27% 60214  817s
H    3     6                    1.046000e+08 1.0694e+08  2.24% 40142  998s
     5    10 1.0694e+08    3 6246 1.0460e+08 1.0694e+08  2.24% 50314 1048s
     9    14 1.0694e+08    4 5878 1.0460e+08 1.0694e+08  2.24% 34207 1141s
H   10    14                    1.046323e+08 1.0694e+08  2.20% 30786 1141s
H   13    32                    1.047836e+08 1.0694e+08  2.06% 25468 1391s
H   20    32                    1.048630e+08 1.0694e+08  1.98% 25358 1391s
H   31    34                    1.054027e+08 1.0694e+08  1.46% 28658 2084s
    33    40 1.0694e+08   11 5983 1.0540e+08 1.0694e+08  1.46% 31002 2563s
    39   105 1.0694e+08   12 5725 1.0540e+08 1.0694e+08  1.46% 39932 3284s
H   68   105                    1.056346e+08 1.0694e+08  1.23% 33465 3284s
H   87   105                    1.056779e+08 1.0694e+08  1.19% 29216 3284s
H  104   109                    1.057737e+08 1.0694e+08  1.10% 28473 3600s

Cutting planes:
  Gomory: 4
  MIR: 20
  Flow cover: 64
  RLT: 2888
  Relax-and-lift: 10

Explored 108 nodes (3340633 simplex iterations) in 3600.24 seconds (3912.49 work units)
Thread count was 8 (of 8 available processors)

Solution count 10: 1.05774e+08 1.05678e+08 1.05635e+08 ... 1.04547e+08

Time limit reached
Best objective 1.057737214228e+08, best bound 1.069386531583e+08, gap 1.1013%
